bound = 116;
n = 8;
p = 4;
num_edges = 56;
E = array2d(1..num_edges, 1..2, [
1,2
,1,3
,1,4
,1,5
,1,6
,1,7
,1,8
,2,1
,2,3
,2,4
,2,5
,2,6
,2,7
,2,8
,3,1
,3,2
,3,4
,3,5
,3,6
,3,7
,3,8
,4,1
,4,2
,4,3
,4,5
,4,6
,4,7
,4,8
,5,1
,5,2
,5,3
,5,4
,5,6
,5,7
,5,8
,6,1
,6,2
,6,3
,6,4
,6,5
,6,7
,6,8
,7,1
,7,2
,7,3
,7,4
,7,5
,7,6
,7,8
,8,1
,8,2
,8,3
,8,4
,8,5
,8,6
,8,7
]);
c=[
27,
42,
27,
26,
45,
44,
25,
27,
19,
11,
13,
27,
25,
2,
42,
19,
15,
17,
10,
8,
21,
27,
11,
15,
3,
19,
17,
11,
26,
13,
17,
3,
20,
18,
13,
45,
27,
10,
19,
20,
3,
29,
44,
25,
8,
17,
18,
3,
26,
25,
2,
21,
11,
13,
29,
26];
